problems/problems/cplex/D1.S1.T2_5.dat
M = 99999999.0;
numWorkers = 15;
numRoles = 5;
numNodes = 40;
wStart = [0, 0, 0, 0, 0, 0, 0, 0, 0, 0, 0, 0, 0, 0, 0, 120, 150, 60, 150, 180, 90, 240, 240, 120, 60, 480, 480, 480, 480, 480, 480, 480, 480, 480, 480, 480, 480, 480, 480, 480];
wEnd = [0, 0, 0, 0, 0, 0, 0, 0, 0, 0, 0, 0, 0, 0, 0, 360, 390, 240, 270, 420, 150, 390, 330, 300, 330, 480, 480, 480, 480, 480, 480, 480, 480, 480, 480, 480, 480, 480, 480, 480];
p = [0, 0, 0, 0, 0, 0, 0, 0, 0, 0, 0, 0, 0, 0, 0, 71.57632872148011, 43.16960889365038, 72.1087963430387, 60.20024662813191, 17.875354839817177, 48.37627056015203, 68.05743769537524, 57.17316921026031, 36.08562957606357, 64.50109997388866, 0, 0, 0, 0, 0, 0, 0, 0, 0, 0, 0, 0, 0, 0, 0];
e = [[0, 0, 0, 1, 1], [1, 1, 0, 0, 0], [1, 0, 0, 0, 0], [0, 1, 0, 0, 0], [0, 0, 1, 0, 0], [0, 0, 1, 0, 0], [0, 0, 0, 1, 0], [1, 0, 0, 0, 0], [1, 0, 0, 0, 0], [0, 0, 0, 1, 0], [0, 0, 1, 0, 0], [0, 0, 0, 0, 1], [0, 0, 0, 0, 1], [0, 1, 0, 0, 0], [0, 1, 0, 0, 0]];
d = [[1, 0, 2, 0, 1, 1, 0, 0, 0, 2], [1, 2, 0, 2, 2, 2, 1, 2, 2, 0], [0, 0, 0, 0, 0, 0, 2, 0, 0, 0], [1, 0, 1, 0, 1, 1, 1, 0, 0, 1], [2, 1, 0, 1, 1, 1, 0, 1, 1, 0]];
r = [1069, 3770, 2642, 1230, 356, 612, 2036, 4950, 2179, 518];
g = [[0, 0, 0, 0, 0, 0, 0, 0, 0, 0], [0, 0, 0, 0, 0, 0, 0, 0, 0, 0], [0, 0, 0, 0, 0, 0, 0, 0, 0, 0], [0, 0, 0, 0, 0, 0, 0, 0, 0, 0], [0, 0, 0, 0, 0, 0, 0, 0, 0, 0], [0, 0, 0, 0, 0, 0, 0, 0, 0, 0], [0, 0, 0, 0, 0, 0, 0, 0, 0, 0], [0, 0, 0, 0, 0, 0, 0, 0, 0, 0], [0, 0, 0, 0, 0, 0, 0, 0, 0, 0], [0, 0, 0, 0, 0, 0, 0, 0, 0, 0]];
t = [[0.0, 0.0, 0.0, 0.0, 0.0, 0.0, 0.0, 0.0, 0.0, 0.0, 0.0, 0.0, 0.0, 0.0, 0.0, 0.5907807604028866, 51.54637831729124, 37.6404180977041, 29.407436750619098, 40.26738358832199, 51.18278021677322, 31.666667296038643, 32.34220116073777, 45.006098044194495, 13.00024548942128, 0.0, 0.0, 0.0, 0.0, 0.0, 0.0, 0.0, 0.0, 0.0, 0.0, 0.0, 0.0, 0.0, 0.0, 0.0], [0.0, 0.0, 0.0, 0.0, 0.0, 0.0, 0.0, 0.0, 0.0, 0.0, 0.0, 0.0, 0.0, 0.0, 0.0, 0.5907807604028866, 51.54637831729124, 37.6404180977041, 29.407436750619098, 40.26738358832199, 51.18278021677322, 31.666667296038643, 32.34220116073777, 45.006098044194495, 13.00024548942128, 0.0, 0.0, 0.0, 0.0, 0.0, 0.0, 0.0, 0.0, 0.0, 0.0, 0.0, 0.0, 0.0, 0.0, 0.0], [0.0, 0.0, 0.0, 0.0, 0.0, 0.0, 0.0, 0.0, 0.0, 0.0, 0.0, 0.0, 0.0, 0.0, 0.0, 0.5907807604028866, 51.54637831729124, 37.6404180977041, 29.407436750619098, 40.26738358832199, 51.18278021677322, 31.666667296038643, 32.34220116073777, 45.006098044194495, 13.00024548942128, 0.0, 0.0, 0.0, 0.0, 0.0, 0.0, 0.0, 0.0, 0.0, 0.0, 0.0, 0.0, 0.0, 0.0, 0.0], [0.0, 0.0, 0.0, 0.0, 0.0, 0.0, 0.0, 0.0, 0.0, 0.0, 0.0, 0.0, 0.0, 0.0, 0.0, 0.5907807604028866, 51.54637831729124, 37.6404180977041, 29.407436750619098, 40.26738358832199, 51.18278021677322, 31.666667296038643, 32.34220116073777, 45.006098044194495, 13.00024548942128, 0.0, 0.0, 0.0, 0.0, 0.0, 0.0, 0.0, 0.0, 0.0, 0.0, 0.0, 0.0, 0.0, 0.0, 0.0], [0.0, 0.0, 0.0, 0.0, 0.0, 0.0, 0.0, 0.0, 0.0, 0.0, 0.0, 0.0, 0.0, 0.0, 0.0, 0.5907807604028866, 51.54637831729124, 37.6404180977041, 29.407436750619098, 40.26738358832199, 51.18278021677322, 31.666667296038643, 32.34220116073777, 45.006098044194495, 13.00024548942128, 0.0, 0.0, 0.0, 0.0, 0.0, 0.0, 0.0, 0.0, 0.0, 0.0, 0.0, 0.0, 0.0, 0.0, 0.0], [0.0, 0.0, 0.0, 0.0, 0.0, 0.0, 0.0, 0.0, 0.0, 0.0, 0.0, 0.0, 0.0, 0.0, 0.0, 0.5907807604028866, 51.54637831729124, 37.6404180977041, 29.407436750619098, 40.26738358832199, 51.18278021677322, 31.666667296038643, 32.34220116073777, 45.006098044194495, 13.00024548942128, 0.0, 0.0, 0.0, 0.0, 0.0, 0.0, 0.0, 0.0, 0.0, 0.0, 0.0, 0.0, 0.0, 0.0, 0.0], [0.0, 0.0, 0.0, 0.0, 0.0, 0.0, 0.0, 0.0, 0.0, 0.0, 0.0, 0.0, 0.0, 0.0, 0.0, 0.5907807604028866, 51.54637831729124, 37.6404180977041, 29.407436750619098, 40.26738358832199, 51.18278021677322, 31.666667296038643, 32.34220116073777, 45.006098044194495, 13.00024548942128, 0.0, 0.0, 0.0, 0.0, 0.0, 0.0, 0.0, 0.0, 0.0, 0.0, 0.0, 0.0, 0.0, 0.0, 0.0], [0.0, 0.0, 0.0, 0.0, 0.0, 0.0, 0.0, 0.0, 0.0, 0.0, 0.0, 0.0, 0.0, 0.0, 0.0, 0.5907807604028866, 51.54637831729124, 37.6404180977041, 29.407436750619098, 40.26738358832199, 51.18278021677322, 31.666667296038643, 32.34220116073777, 45.006098044194495, 13.00024548942128, 0.0, 0.0, 0.0, 0.0, 0.0, 0.0, 0.0, 0.0, 0.0, 0.0, 0.0, 0.0, 0.0, 0.0, 0.0], [0.0, 0.0, 0.0, 0.0, 0.0, 0.0, 0.0, 0.0, 0.0, 0.0, 0.0, 0.0, 0.0, 0.0, 0.0, 0.5907807604028866, 51.54637831729124, 37.6404180977041, 29.407436750619098, 40.26738358832199, 51.18278021677322, 31.666667296038643, 32.34220116073777, 45.006098044194495, 13.00024548942128, 0.0, 0.0, 0.0, 0.0, 0.0, 0.0, 0.0, 0.0, 0.0, 0.0, 0.0, 0.0, 0.0, 0.0, 0.0], [0.0, 0.0, 0.0, 0.0, 0.0, 0.0, 0.0, 0.0, 0.0, 0.0, 0.0, 0.0, 0.0, 0.0, 0.0, 0.5907807604028866, 51.54637831729124, 37.6404180977041, 29.407436750619098, 40.26738358832199, 51.18278021677322, 31.666667296038643, 32.34220116073777, 45.006098044194495, 13.00024548942128, 0.0, 0.0, 0.0, 0.0, 0.0, 0.0, 0.0, 0.0, 0.0, 0.0, 0.0, 0.0, 0.0, 0.0, 0.0], [0.0, 0.0, 0.0, 0.0, 0.0, 0.0, 0.0, 0.0, 0.0, 0.0, 0.0, 0.0, 0.0, 0.0, 0.0, 0.5907807604028866, 51.54637831729124, 37.6404180977041, 29.407436750619098, 40.26738358832199, 51.18278021677322, 31.666667296038643, 32.34220116073777, 45.006098044194495, 13.00024548942128, 0.0, 0.0, 0.0, 0.0, 0.0, 0.0, 0.0, 0.0, 0.0, 0.0, 0.0, 0.0, 0.0, 0.0, 0.0], [0.0, 0.0, 0.0, 0.0, 0.0, 0.0, 0.0, 0.0, 0.0, 0.0, 0.0, 0.0, 0.0, 0.0, 0.0, 0.5907807604028866, 51.54637831729124, 37.6404180977041, 29.407436750619098, 40.26738358832199, 51.18278021677322, 31.666667296038643, 32.34220116073777, 45.006098044194495, 13.00024548942128, 0.0, 0.0, 0.0, 0.0, 0.0, 0.0, 0.0, 0.0, 0.0, 0.0, 0.0, 0.0, 0.0, 0.0, 0.0], [0.0, 0.0, 0.0, 0.0, 0.0, 0.0, 0.0, 0.0, 0.0, 0.0, 0.0, 0.0, 0.0, 0.0, 0.0, 0.5907807604028866, 51.54637831729124, 37.6404180977041, 29.407436750619098, 40.26738358832199, 51.18278021677322, 31.666667296038643, 32.34220116073777, 45.006098044194495, 13.00024548942128, 0.0, 0.0, 0.0, 0.0, 0.0, 0.0, 0.0, 0.0, 0.0, 0.0, 0.0, 0.0, 0.0, 0.0, 0.0], [0.0, 0.0, 0.0, 0.0, 0.0, 0.0, 0.0, 0.0, 0.0, 0.0, 0.0, 0.0, 0.0, 0.0, 0.0, 0.5907807604028866, 51.54637831729124, 37.6404180977041, 29.407436750619098, 40.26738358832199, 51.18278021677322, 31.666667296038643, 32.34220116073777, 45.006098044194495, 13.00024548942128, 0.0, 0.0, 0.0, 0.0, 0.0, 0.0, 0.0, 0.0, 0.0, 0.0, 0.0, 0.0, 0.0, 0.0, 0.0], [0.0, 0.0, 0.0, 0.0, 0.0, 0.0, 0.0, 0.0, 0.0, 0.0, 0.0, 0.0, 0.0, 0.0, 0.0, 0.5907807604028866, 51.54637831729124, 37.6404180977041, 29.407436750619098, 40.26738358832199, 51.18278021677322, 31.666667296038643, 32.34220116073777, 45.006098044194495, 13.00024548942128, 0.0, 0.0, 0.0, 0.0, 0.0, 0.0, 0.0, 0.0, 0.0, 0.0, 0.0, 0.0, 0.0, 0.0, 0.0], [0.5907807604028866, 0.5907807604028866, 0.5907807604028866, 0.5907807604028866, 0.5907807604028866, 0.5907807604028866, 0.5907807604028866, 0.5907807604028866, 0.5907807604028866, 0.5907807604028866, 0.5907807604028866, 0.5907807604028866, 0.5907807604028866, 0.5907807604028866, 0.5907807604028866, 0.0, 51.04782576189102, 37.093896901068646, 28.8169920951363, 39.7321418749177, 50.629307204967276, 31.322712606774363, 31.762853142847995, 44.86936265695195, 13.50446158048937, 0.5907807604028866, 0.5907807604028866, 0.5907807604028866, 0.5907807604028866, 0.5907807604028866, 0.5907807604028866, 0.5907807604028866, 0.5907807604028866, 0.5907807604028866, 0.5907807604028866, 0.5907807604028866, 0.5907807604028866, 0.5907807604028866, 0.5907807604028866, 0.5907807604028866], [51.54637831729124, 51.54637831729124, 51.54637831729124, 51.54637831729124, 51.54637831729124, 51.54637831729124, 51.54637831729124, 51.54637831729124, 51.54637831729124, 51.54637831729124, 51.54637831729124, 51.54637831729124, 51.54637831729124, 51.54637831729124, 51.54637831729124, 51.04782576189102, 0.0, 15.930488893389096, 31.841606220172206, 12.721906123525505, 10.668957701066182, 25.02612244375631, 35.81590772118453, 36.65947130606625, 58.36236516117463, 51.54637831729124, 51.54637831729124, 51.54637831729124, 51.54637831729124, 51.54637831729124, 51.54637831729124, 51.54637831729124, 51.54637831729124, 51.54637831729124, 51.54637831729124, 51.54637831729124, 51.54637831729124, 51.54637831729124, 51.54637831729124, 51.54637831729124], [37.6404180977041, 37.6404180977041, 37.6404180977041, 37.6404180977041, 37.6404180977041, 37.6404180977041, 37.6404180977041, 37.6404180977041, 37.6404180977041, 37.6404180977041, 37.6404180977041, 37.6404180977041, 37.6404180977041, 37.6404180977041, 37.6404180977041, 37.093896901068646, 15.930488893389096, 0.0, 16.128753034825102, 3.210600291982104, 13.61182364196938, 19.843462820874773, 20.70403910211388, 38.155515729971995, 46.453168931783615, 37.6404180977041, 37.6404180977041, 37.6404180977041, 37.6404180977041, 37.6404180977041, 37.6404180977041, 37.6404180977041, 37.6404180977041, 37.6404180977041, 37.6404180977041, 37.6404180977041, 37.6404180977041, 37.6404180977041, 37.6404180977041, 37.6404180977041], [29.407436750619098, 29.407436750619098, 29.407436750619098, 29.407436750619098, 29.407436750619098, 29.407436750619098, 29.407436750619098, 29.407436750619098, 29.407436750619098, 29.407436750619098, 29.407436750619098, 29.407436750619098, 29.407436750619098, 29.407436750619098, 29.407436750619098, 28.8169920951363, 31.841606220172206, 16.128753034825102, 0.0, 19.285104034968956, 26.432434021001427, 28.681769285574948, 5.785916931738221, 48.45045551108724, 41.16861952025878, 29.407436750619098, 29.407436750619098, 29.407436750619098, 29.407436750619098, 29.407436750619098, 29.407436750619098, 29.407436750619098, 29.407436750619098, 29.407436750619098, 29.407436750619098, 29.407436750619098, 29.407436750619098, 29.407436750619098, 29.407436750619098, 29.407436750619098], [40.26738358832199, 40.26738358832199, 40.26738358832199, 40.26738358832199, 40.26738358832199, 40.26738358832199, 40.26738358832199, 40.26738358832199, 40.26738358832199, 40.26738358832199, 40.26738358832199, 40.26738358832199, 40.26738358832199, 40.26738358832199, 40.26738358832199, 39.7321418749177, 12.721906123525505, 3.210600291982104, 19.285104034968956, 0.0, 11.485063001078561, 19.89370158845989, 23.698972056634208, 37.21670754219201, 48.59561751020817, 40.26738358832199, 40.26738358832199, 40.26738358832199, 40.26738358832199, 40.26738358832199, 40.26738358832199, 40.26738358832199, 40.26738358832199, 40.26738358832199, 40.26738358832199, 40.26738358832199, 40.26738358832199, 40.26738358832199, 40.26738358832199, 40.26738358832199], [51.18278021677322, 51.18278021677322, 51.18278021677322, 51.18278021677322, 51.18278021677322, 51.18278021677322, 51.18278021677322, 51.18278021677322, 51.18278021677322, 51.18278021677322, 51.18278021677322, 51.18278021677322, 51.18278021677322, 51.18278021677322, 51.18278021677322, 50.629307204967276, 10.668957701066182, 13.61182364196938, 26.432434021001427, 11.485063001078561, 0.0, 30.374202650877724, 29.053592608353092, 45.41027809207089, 60.0, 51.18278021677322, 51.18278021677322, 51.18278021677322, 51.18278021677322, 51.18278021677322, 51.18278021677322, 51.18278021677322, 51.18278021677322, 51.18278021677322, 51.18278021677322, 51.18278021677322, 51.18278021677322, 51.18278021677322, 51.18278021677322, 51.18278021677322], [31.666667296038643, 31.666667296038643, 31.666667296038643, 31.666667296038643, 31.666667296038643, 31.666667296038643, 31.666667296038643, 31.666667296038643, 31.666667296038643, 31.666667296038643, 31.666667296038643, 31.666667296038643, 31.666667296038643, 31.666667296038643, 31.666667296038643, 31.322712606774363, 25.02612244375631, 19.843462820874773, 28.681769285574948, 19.89370158845989, 30.374202650877724, 0.0, 34.4653462129306, 19.7734153360166, 35.05222699044577, 31.666667296038643, 31.666667296038643, 31.666667296038643, 31.666667296038643, 31.666667296038643, 31.666667296038643, 31.666667296038643, 31.666667296038643, 31.666667296038643, 31.666667296038643, 31.666667296038643, 31.666667296038643, 31.666667296038643, 31.666667296038643, 31.666667296038643], [32.34220116073777, 32.34220116073777, 32.34220116073777, 32.34220116073777, 32.34220116073777, 32.34220116073777, 32.34220116073777, 32.34220116073777, 32.34220116073777, 32.34220116073777, 32.34220116073777, 32.34220116073777, 32.34220116073777, 32.34220116073777, 32.34220116073777, 31.762853142847995, 35.81590772118453, 20.70403910211388, 5.785916931738221, 23.698972056634208, 29.053592608353092, 34.4653462129306, 0.0, 54.235381909489476, 44.72857138824072, 32.34220116073777, 32.34220116073777, 32.34220116073777, 32.34220116073777, 32.34220116073777, 32.34220116073777, 32.34220116073777, 32.34220116073777, 32.34220116073777, 32.34220116073777, 32.34220116073777, 32.34220116073777, 32.34220116073777, 32.34220116073777, 32.34220116073777], [45.006098044194495, 45.006098044194495, 45.006098044194495, 45.006098044194495, 45.006098044194495, 45.006098044194495, 45.006098044194495, 45.006098044194495, 45.006098044194495, 45.006098044194495, 45.006098044194495, 45.006098044194495, 45.006098044194495, 45.006098044194495, 45.006098044194495, 44.86936265695195, 36.65947130606625, 38.155515729971995, 48.45045551108724, 37.21670754219201, 45.41027809207089, 19.7734153360166, 54.235381909489476, 0.0, 42.73766389499749, 45.006098044194495, 45.006098044194495, 45.006098044194495, 45.006098044194495, 45.006098044194495, 45.006098044194495, 45.006098044194495, 45.006098044194495, 45.006098044194495, 45.006098044194495, 45.006098044194495, 45.006098044194495, 45.006098044194495, 45.006098044194495, 45.006098044194495], [13.00024548942128, 13.00024548942128, 13.00024548942128, 13.00024548942128, 13.00024548942128, 13.00024548942128, 13.00024548942128, 13.00024548942128, 13.00024548942128, 13.00024548942128, 13.00024548942128, 13.00024548942128, 13.00024548942128, 13.00024548942128, 13.00024548942128, 13.50446158048937, 58.36236516117463, 46.453168931783615, 41.16861952025878, 48.59561751020817, 60.0, 35.05222699044577, 44.72857138824072, 42.73766389499749, 0.0, 13.00024548942128, 13.00024548942128, 13.00024548942128, 13.00024548942128, 13.00024548942128, 13.00024548942128, 13.00024548942128, 13.00024548942128, 13.00024548942128, 13.00024548942128, 13.00024548942128, 13.00024548942128, 13.00024548942128, 13.00024548942128, 13.00024548942128], [0.0, 0.0, 0.0, 0.0, 0.0, 0.0, 0.0, 0.0, 0.0, 0.0, 0.0, 0.0, 0.0, 0.0, 0.0, 0.5907807604028866, 51.54637831729124, 37.6404180977041, 29.407436750619098, 40.26738358832199, 51.18278021677322, 31.666667296038643, 32.34220116073777, 45.006098044194495, 13.00024548942128, 0.0, 0.0, 0.0, 0.0, 0.0, 0.0, 0.0, 0.0, 0.0, 0.0, 0.0, 0.0, 0.0, 0.0, 0.0], [0.0, 0.0, 0.0, 0.0, 0.0, 0.0, 0.0, 0.0, 0.0, 0.0, 0.0, 0.0, 0.0, 0.0, 0.0, 0.5907807604028866, 51.54637831729124, 37.6404180977041, 29.407436750619098, 40.26738358832199, 51.18278021677322, 31.666667296038643, 32.34220116073777, 45.006098044194495, 13.00024548942128, 0.0, 0.0, 0.0, 0.0, 0.0, 0.0, 0.0, 0.0, 0.0, 0.0, 0.0, 0.0, 0.0, 0.0, 0.0], [0.0, 0.0, 0.0, 0.0, 0.0, 0.0, 0.0, 0.0, 0.0, 0.0, 0.0, 0.0, 0.0, 0.0, 0.0, 0.5907807604028866, 51.54637831729124, 37.6404180977041, 29.407436750619098, 40.26738358832199, 51.18278021677322, 31.666667296038643, 32.34220116073777, 45.006098044194495, 13.00024548942128, 0.0, 0.0, 0.0, 0.0, 0.0, 0.0, 0.0, 0.0, 0.0, 0.0, 0.0, 0.0, 0.0, 0.0, 0.0], [0.0, 0.0, 0.0, 0.0, 0.0, 0.0, 0.0, 0.0, 0.0, 0.0, 0.0, 0.0, 0.0, 0.0, 0.0, 0.5907807604028866, 51.54637831729124, 37.6404180977041, 29.407436750619098, 40.26738358832199, 51.18278021677322, 31.666667296038643, 32.34220116073777, 45.006098044194495, 13.00024548942128, 0.0, 0.0, 0.0, 0.0, 0.0, 0.0, 0.0, 0.0, 0.0, 0.0, 0.0, 0.0, 0.0, 0.0, 0.0], [0.0, 0.0, 0.0, 0.0, 0.0, 0.0, 0.0, 0.0, 0.0, 0.0, 0.0, 0.0, 0.0, 0.0, 0.0, 0.5907807604028866, 51.54637831729124, 37.6404180977041, 29.407436750619098, 40.26738358832199, 51.18278021677322, 31.666667296038643, 32.34220116073777, 45.006098044194495, 13.00024548942128, 0.0, 0.0, 0.0, 0.0, 0.0, 0.0, 0.0, 0.0, 0.0, 0.0, 0.0, 0.0, 0.0, 0.0, 0.0], [0.0, 0.0, 0.0, 0.0, 0.0, 0.0, 0.0, 0.0, 0.0, 0.0, 0.0, 0.0, 0.0, 0.0, 0.0, 0.5907807604028866, 51.54637831729124, 37.6404180977041, 29.407436750619098, 40.26738358832199, 51.18278021677322, 31.666667296038643, 32.34220116073777, 45.006098044194495, 13.00024548942128, 0.0, 0.0, 0.0, 0.0, 0.0, 0.0, 0.0, 0.0, 0.0, 0.0, 0.0, 0.0, 0.0, 0.0, 0.0], [0.0, 0.0, 0.0, 0.0, 0.0, 0.0, 0.0, 0.0, 0.0, 0.0, 0.0, 0.0, 0.0, 0.0, 0.0, 0.5907807604028866, 51.54637831729124, 37.6404180977041, 29.407436750619098, 40.26738358832199, 51.18278021677322, 31.666667296038643, 32.34220116073777, 45.006098044194495, 13.00024548942128, 0.0, 0.0, 0.0, 0.0, 0.0, 0.0, 0.0, 0.0, 0.0, 0.0, 0.0, 0.0, 0.0, 0.0, 0.0], [0.0, 0.0, 0.0, 0.0, 0.0, 0.0, 0.0, 0.0, 0.0, 0.0, 0.0, 0.0, 0.0, 0.0, 0.0, 0.5907807604028866, 51.54637831729124, 37.6404180977041, 29.407436750619098, 40.26738358832199, 51.18278021677322, 31.666667296038643, 32.34220116073777, 45.006098044194495, 13.00024548942128, 0.0, 0.0, 0.0, 0.0, 0.0, 0.0, 0.0, 0.0, 0.0, 0.0, 0.0, 0.0, 0.0, 0.0, 0.0], [0.0, 0.0, 0.0, 0.0, 0.0, 0.0, 0.0, 0.0, 0.0, 0.0, 0.0, 0.0, 0.0, 0.0, 0.0, 0.5907807604028866, 51.54637831729124, 37.6404180977041, 29.407436750619098, 40.26738358832199, 51.18278021677322, 31.666667296038643, 32.34220116073777, 45.006098044194495, 13.00024548942128, 0.0, 0.0, 0.0, 0.0, 0.0, 0.0, 0.0, 0.0, 0.0, 0.0, 0.0, 0.0, 0.0, 0.0, 0.0], [0.0, 0.0, 0.0, 0.0, 0.0, 0.0, 0.0, 0.0, 0.0, 0.0, 0.0, 0.0, 0.0, 0.0, 0.0, 0.5907807604028866, 51.54637831729124, 37.6404180977041, 29.407436750619098, 40.26738358832199, 51.18278021677322, 31.666667296038643, 32.34220116073777, 45.006098044194495, 13.00024548942128, 0.0, 0.0, 0.0, 0.0, 0.0, 0.0, 0.0, 0.0, 0.0, 0.0, 0.0, 0.0, 0.0, 0.0, 0.0], [0.0, 0.0, 0.0, 0.0, 0.0, 0.0, 0.0, 0.0, 0.0, 0.0, 0.0, 0.0, 0.0, 0.0, 0.0, 0.5907807604028866, 51.54637831729124, 37.6404180977041, 29.407436750619098, 40.26738358832199, 51.18278021677322, 31.666667296038643, 32.34220116073777, 45.006098044194495, 13.00024548942128, 0.0, 0.0, 0.0, 0.0, 0.0, 0.0, 0.0, 0.0, 0.0, 0.0, 0.0, 0.0, 0.0, 0.0, 0.0], [0.0, 0.0, 0.0, 0.0, 0.0, 0.0, 0.0, 0.0, 0.0, 0.0, 0.0, 0.0, 0.0, 0.0, 0.0, 0.5907807604028866, 51.54637831729124, 37.6404180977041, 29.407436750619098, 40.26738358832199, 51.18278021677322, 31.666667296038643, 32.34220116073777, 45.006098044194495, 13.00024548942128, 0.0, 0.0, 0.0, 0.0, 0.0, 0.0, 0.0, 0.0, 0.0, 0.0, 0.0, 0.0, 0.0, 0.0, 0.0], [0.0, 0.0, 0.0, 0.0, 0.0, 0.0, 0.0, 0.0, 0.0, 0.0, 0.0, 0.0, 0.0, 0.0, 0.0, 0.5907807604028866, 51.54637831729124, 37.6404180977041, 29.407436750619098, 40.26738358832199, 51.18278021677322, 31.666667296038643, 32.34220116073777, 45.006098044194495, 13.00024548942128, 0.0, 0.0, 0.0, 0.0, 0.0, 0.0, 0.0, 0.0, 0.0, 0.0, 0.0, 0.0, 0.0, 0.0, 0.0], [0.0, 0.0, 0.0, 0.0, 0.0, 0.0, 0.0, 0.0, 0.0, 0.0, 0.0, 0.0, 0.0, 0.0, 0.0, 0.5907807604028866, 51.54637831729124, 37.6404180977041, 29.407436750619098, 40.26738358832199, 51.18278021677322, 31.666667296038643, 32.34220116073777, 45.006098044194495, 13.00024548942128, 0.0, 0.0, 0.0, 0.0, 0.0, 0.0, 0.0, 0.0, 0.0, 0.0, 0.0, 0.0, 0.0, 0.0, 0.0], [0.0, 0.0, 0.0, 0.0, 0.0, 0.0, 0.0, 0.0, 0.0, 0.0, 0.0, 0.0, 0.0, 0.0, 0.0, 0.5907807604028866, 51.54637831729124, 37.6404180977041, 29.407436750619098, 40.26738358832199, 51.18278021677322, 31.666667296038643, 32.34220116073777, 45.006098044194495, 13.00024548942128, 0.0, 0.0, 0.0, 0.0, 0.0, 0.0, 0.0, 0.0, 0.0, 0.0, 0.0, 0.0, 0.0, 0.0, 0.0]];
